Geographic Exponential Decay
20 167 107 93 265 138 45 24 216 21 260 169 152 189 54 259 156 305 250 100 228
p edge 320 638
e 0 305 80.0
e 1 202 7.0
e 1 277 3.0
e 1 20 5.0
e 2 257 5.0
e 2 275 3.0
e 2 16 2.0
e 3 144 5.0
e 3 172 4.0
e 4 285 7.0
e 4 265 10.0
e 4 161 10.0
e 5 10 2.0
e 6 164 1.0
e 7 287 1.0
e 7 19 9.0
e 7 149 6.0
e 8 61 4.0
e 8 248 1.0
e 9 96 1.0
e 11 38 8.0
e 11 215 5.0
e 11 268 8.0
e 12 121 4.0
e 13 246 2.0
e 14 275 6.0
e 14 174 2.0
e 14 198 3.0
e 15 75 1.0
e 16 239 10.0
e 16 152 16.0
e 17 217 5.0
e 18 283 1.0
e 21 35 75.0
e 21 257 18.0
e 21 286 87.0
e 21 51 80.0
e 21 73 66.0
e 21 112 75.0
e 21 283 60.0
e 21 52 58.0
e 21 244 84.0
e 21 91 95.0
e 21 117 58.0
e 21 42 6.0
e 21 126 52.0
e 21 296 73.0
e 21 168 76.0
e 21 60 13.0
e 21 258 15.0
e 22 146 2.0
e 23 164 2.0
e 24 292 47.0
e 24 67 4.0
e 24 245 81.0
e 24 113 66.0
e 24 242 44.0
e 24 146 36.0
e 24 44 2.0
e 24 252 62.0
e 24 168 42.0
e 24 237 50.0
e 24 118 53.0
e 24 124 40.0
e 24 302 91.0
e 24 29 61.0
e 24 16 32.0
e 24 108 93.0
e 24 148 9.0
e 25 134 5.0
e 26 287 1.0
e 27 2 7.0
e 28 117 5.0
e 28 96 1.0
e 30 286 9.0
e 30 122 13.0
e 30 265 96.0
e 30 266 1.0
e 30 241 11.0
e 31 33 1.0
e 32 116 5.0
e 34 11 5.0
e 34 105 1.0
e 34 317 6.0
e 35 27 4.0
e 36 167 55.0
e 36 119 1.0
e 37 20 1.0
e 38 108 10.0
e 38 89 10.0
e 39 211 5.0
e 40 190 11.0
e 40 267 3.0
e 40 191 11.0
e 41 254 3.0
e 41 87 3.0
e 41 169 70.0
e 42 191 1.0
e 43 145 10.0
e 43 50 5.0
e 44 95 1.0
e 45 306 100.0
e 45 245 73.0
e 45 216 63.0
e 45 73 10.0
e 45 290 50.0
e 45 227 72.0
e 45 161 34.0
e 45 124 17.0
e 45 60 47.0
e 45 48 28.0
e 45 52 3.0
e 45 284 17.0
e 45 7 51.0
e 45 162 43.0
e 45 317 82.0
e 45 307 20.0
e 45 111 20.0
e 46 16 5.0
e 47 132 46.0
e 49 104 4.0
e 51 109 1.0
e 52 283 6.0
e 53 93 47.0
e 54 17 70.0
e 54 11 13.0
e 54 86 82.0
e 54 140 61.0
e 54 254 21.0
e 54 220 65.0
e 54 221 86.0
e 54 195 16.0
e 54 34 65.0
e 54 108 41.0
e 54 184 66.0
e 54 228 42.0
e 54 66 7.0
e 54 95 19.0
e 54 37 67.0
e 54 38 62.0
e 54 272 44.0
e 55 97 1.0
e 56 118 7.0
e 57 154 24.0
e 57 30 21.0
e 57 58 10.0
e 57 309 10.0
e 57 153 24.0
e 58 100 45.0
e 59 146 1.0
e 62 291 27.0
e 62 51 20.0
e 62 287 31.0
e 62 171 2.0
e 62 194 32.0
e 62 147 24.0
e 62 221 15.0
e 62 254 29.0
e 62 156 58.0
e 63 234 6.0
e 63 263 6.0
e 63 309 1.0
e 64 216 60.0
e 64 59 4.0
e 65 127 16.0
e 65 222 4.0
e 65 50 2.0
e 65 140 8.0
e 65 86 24.0
e 66 281 2.0
e 66 27 8.0
e 67 278 5.0
e 68 98 1.0
e 69 157 6.0
e 69 74 2.0
e 70 299 24.0
e 71 299 18.0
e 72 298 19.0
e 72 141 1.0
e 74 102 3.0
e 76 102 1.0
e 76 172 2.0
e 76 78 8.0
e 77 257 2.0
e 78 14 1.0
e 79 225 1.0
e 80 151 15.0
e 80 272 17.0
e 80 290 24.0
e 80 286 15.0
e 80 98 18.0
e 81 106 1.0
e 82 60 4.0
e 82 27 5.0
e 83 257 5.0
e 84 12 2.0
e 85 31 5.0
e 85 10 3.0
e 87 16 11.0
e 88 105 1.0
e 89 201 11.0
e 90 120 1.0
e 90 0 1.0
e 91 71 8.0
e 91 231 6.0
e 92 285 11.0
e 92 278 1.0
e 93 317 45.0
e 93 23 22.0
e 93 47 63.0
e 93 118 69.0
e 93 193 25.0
e 93 52 54.0
e 93 298 74.0
e 93 43 93.0
e 93 203 5.0
e 93 282 12.0
e 93 188 66.0
e 93 30 61.0
e 93 163 28.0
e 93 18 94.0
e 93 275 6.0
e 93 239 74.0
e 94 31 1.0
e 97 147 5.0
e 99 207 3.0
e 100 198 64.0
e 100 256 97.0
e 100 127 57.0
e 100 192 90.0
e 100 7 92.0
e 100 296 29.0
e 100 23 70.0
e 100 125 25.0
e 100 267 25.0
e 100 19 31.0
e 100 97 7.0
e 100 275 78.0
e 100 24 69.0
e 100 143 34.0
e 100 257 41.0
e 100 268 85.0
e 101 272 6.0
e 101 73 2.0
e 103 256 1.0
e 104 64 5.0
e 107 159 71.0
e 107 2 81.0
e 107 50 59.0
e 107 207 54.0
e 107 278 32.0
e 107 164 29.0
e 107 135 35.0
e 107 315 16.0
e 107 4 97.0
e 107 76 63.0
e 107 66 60.0
e 107 87 23.0
e 107 82 63.0
e 107 143 42.0
e 107 233 87.0
e 107 313 96.0
e 107 7 88.0
e 110 49 1.0
e 114 221 1.0
e 114 235 2.0
e 115 54 80.0
e 115 255 3.0
e 116 74 4.0
e 119 4 11.0
e 119 315 5.0
e 121 255 1.0
e 123 135 5.0
e 123 21 76.0
e 126 273 1.0
e 128 237 1.0
e 129 67 4.0
e 129 5 3.0
e 130 181 1.0
e 131 101 5.0
e 132 161 17.0
e 132 305 54.0
e 132 316 28.0
e 132 238 12.0
e 132 166 46.0
e 132 0 28.0
e 132 96 41.0
e 132 94 16.0
e 133 45 81.0
e 133 230 8.0
e 133 119 1.0
e 133 72 15.0
e 133 134 18.0
e 136 62 27.0
e 137 246 1.0
e 138 100 33.0
e 138 15 14.0
e 138 111 47.0
e 138 253 53.0
e 138 210 6.0
e 138 250 7.0
e 138 161 54.0
e 138 289 81.0
e 138 25 39.0
e 138 218 76.0
e 138 44 10.0
e 138 39 51.0
e 138 89 21.0
e 138 244 95.0
e 138 245 99.0
e 138 242 10.0
e 138 172 98.0
e 139 252 1.0
e 139 309 2.0
e 140 172 22.0
e 140 285 5.0
e 140 149 34.0
e 140 126 11.0
e 140 282 22.0
e 140 2 48.0
e 140 107 90.0
e 141 181 1.0
e 142 289 2.0
e 145 146 11.0
e 145 207 14.0
e 145 159 9.0
e 145 156 99.0
e 147 265 97.0
e 148 137 2.0
e 150 149 3.0
e 150 31 3.0
e 150 210 2.0
e 152 235 35.0
e 152 28 37.0
e 152 302 42.0
e 152 318 42.0
e 152 45 6.0
e 152 179 30.0
e 152 0 22.0
e 152 171 21.0
e 152 34 20.0
e 152 32 92.0
e 152 85 59.0
e 152 183 97.0
e 152 227 96.0
e 152 44 46.0
e 152 4 86.0
e 152 93 63.0
e 155 147 11.0
e 156 23 84.0
e 156 3 25.0
e 156 303 30.0
e 156 169 99.0
e 156 154 35.0
e 156 305 44.0
e 156 247 21.0
e 156 22 51.0
e 156 270 98.0
e 156 25 39.0
e 156 295 56.0
e 156 276 9.0
e 156 138 25.0
e 156 232 46.0
e 156 101 88.0
e 158 211 1.0
e 158 213 4.0
e 160 211 6.0
e 160 25 9.0
e 160 108 6.0
e 162 248 5.0
e 162 263 24.0
e 162 255 23.0
e 162 289 15.0
e 165 188 1.0
e 165 283 3.0
e 166 260 95.0
e 166 193 4.0
e 167 6 90.0
e 167 40 31.0
e 167 240 22.0
e 167 73 43.0
e 167 141 32.0
e 167 52 40.0
e 167 19 84.0
e 167 114 90.0
e 167 147 50.0
e 167 17 24.0
e 167 227 99.0
e 167 8 12.0
e 167 152 54.0
e 167 237 8.0
e 167 101 70.0
e 167 165 62.0
e 169 170 46.0
e 169 203 58.0
e 169 153 40.0
e 169 8 85.0
e 169 206 7.0
e 169 158 33.0
e 169 151 64.0
e 169 268 100.0
e 169 44 65.0
e 169 147 4.0
e 169 229 74.0
e 169 274 36.0
e 169 62 89.0
e 169 189 64.0
e 169 317 60.0
e 170 91 11.0
e 170 171 1.0
e 173 65 12.0
e 175 212 8.0
e 176 200 2.0
e 176 312 3.0
e 177 304 1.0
e 177 242 5.0
e 178 135 1.0
e 179 173 1.0
e 180 28 1.0
e 182 304 1.0
e 183 181 23.0
e 183 265 75.0
e 183 307 8.0
e 183 75 3.0
e 184 243 1.0
e 184 117 7.0
e 185 99 2.0
e 186 28 1.0
e 186 123 6.0
e 187 180 4.0
e 187 142 18.0
e 187 22 1.0
e 187 34 22.0
e 187 118 10.0
e 189 49 38.0
e 189 110 37.0
e 189 200 80.0
e 189 201 92.0
e 189 11 51.0
e 189 208 15.0
e 189 259 83.0
e 189 215 79.0
e 189 22 92.0
e 189 222 83.0
e 189 170 51.0
e 189 188 91.0
e 189 202 54.0
e 189 205 35.0
e 189 126 7.0
e 189 91 86.0
e 190 92 9.0
e 190 229 8.0
e 192 13 2.0
e 194 104 3.0
e 196 203 12.0
e 196 177 10.0
e 196 33 3.0
e 197 277 1.0
e 199 148 1.0
e 201 214 5.0
e 204 255 1.0
e 205 187 19.0
e 209 99 1.0
e 212 6 9.0
e 212 202 5.0
e 216 205 55.0
e 216 209 95.0
e 216 151 48.0
e 216 123 83.0
e 216 253 56.0
e 216 239 67.0
e 216 286 66.0
e 216 203 98.0
e 216 144 9.0
e 216 293 23.0
e 216 245 3.0
e 216 169 24.0
e 216 36 25.0
e 216 155 3.0
e 216 41 20.0
e 217 200 6.0
e 218 229 39.0
e 218 56 45.0
e 218 41 42.0
e 218 24 41.0
e 218 258 28.0
e 218 273 15.0
e 218 183 37.0
e 218 109 46.0
e 219 245 12.0
e 220 162 22.0
e 223 158 3.0
e 224 174 2.0
e 226 281 3.0
e 226 21 71.0
e 228 49 4.0
e 228 270 63.0
e 228 21 34.0
e 228 83 99.0
e 228 316 39.0
e 228 69 88.0
e 228 64 92.0
e 228 103 40.0
e 228 244 78.0
e 228 313 87.0
e 228 79 67.0
e 228 311 52.0
e 228 197 72.0
e 228 174 60.0
e 228 195 3.0
e 228 219 58.0
e 231 200 9.0
e 231 43 1.0
e 232 3 2.0
e 234 281 8.0
e 236 124 3.0
e 239 258 16.0
e 239 43 17.0
e 249 279 12.0
e 249 63 12.0
e 250 198 16.0
e 250 136 6.0
e 250 278 79.0
e 250 45 66.0
e 250 266 30.0
e 250 167 70.0
e 250 260 91.0
e 250 270 95.0
e 250 93 83.0
e 250 39 75.0
e 250 35 58.0
e 250 276 52.0
e 250 279 18.0
e 250 132 40.0
e 250 88 100.0
e 250 195 48.0
e 251 310 12.0
e 251 10 1.0
e 251 254 6.0
e 259 109 8.0
e 259 209 29.0
e 259 46 58.0
e 259 65 67.0
e 259 1 18.0
e 259 33 22.0
e 259 110 83.0
e 259 273 56.0
e 259 193 20.0
e 259 106 61.0
e 259 59 1.0
e 259 227 66.0
e 259 47 96.0
e 259 32 14.0
e 259 149 41.0
e 259 247 27.0
e 260 89 50.0
e 260 251 65.0
e 260 219 70.0
e 260 300 100.0
e 260 133 11.0
e 260 180 55.0
e 260 303 95.0
e 260 35 9.0
e 260 20 43.0
e 260 211 66.0
e 260 259 5.0
e 260 59 50.0
e 260 216 9.0
e 260 309 79.0
e 260 13 69.0
e 261 230 1.0
e 262 246 1.0
e 264 140 36.0
e 264 111 5.0
e 265 170 47.0
e 265 193 18.0
e 265 29 17.0
e 265 150 91.0
e 265 52 37.0
e 265 32 2.0
e 265 56 41.0
e 265 97 83.0
e 265 187 8.0
e 265 165 94.0
e 265 242 5.0
e 265 243 57.0
e 265 36 87.0
e 266 218 1.0
e 269 114 3.0
e 269 311 9.0
e 269 256 1.0
e 271 105 5.0
e 271 78 5.0
e 279 262 5.0
e 280 130 1.0
e 280 281 1.0
e 285 117 1.0
e 285 24 55.0
e 288 284 1.0
e 292 128 1.0
e 292 214 1.0
e 294 315 5.0
e 297 311 1.0
e 298 196 21.0
e 298 76 25.0
e 298 29 16.0
e 299 176 10.0
e 299 284 11.0
e 299 26 21.0
e 300 148 1.0
e 301 287 11.0
e 302 102 3.0
e 302 29 4.0
e 302 139 24.0
e 303 113 6.0
e 305 50 43.0
e 305 285 48.0
e 305 53 64.0
e 305 279 74.0
e 305 227 30.0
e 305 98 77.0
e 305 3 64.0
e 305 76 84.0
e 305 297 56.0
e 305 64 11.0
e 305 38 17.0
e 305 169 66.0
e 305 248 45.0
e 305 1 48.0
e 307 79 5.0
e 308 197 7.0
e 308 189 79.0
e 308 133 13.0
e 312 230 2.0
e 314 56 1.0
e 318 118 8.0
e 318 89 11.0
e 319 118 10.0
